package kokkos newton on neigh half

units metal
atom_style atomic/kk

read_data water.data

pair_style metatomic/kk &
        model.pt &
        uncertainty_threshold off &
        device cuda

pair_coeff * * 1 8

neighbor 2.0 bin
timestep 0.0005

thermo 10

velocity all create 450 87287 mom yes rot yes

fix 1 all nve

run_style verlet/kk
run 100
