units metal
atom_style atomic

read_restart em.restart

pair_style metatomic &
    model.pt &
    uncertainty_threshold off

pair_coeff * * 1 8

neighbor 2.0 bin
timestep 0.0005

thermo 50

velocity all create 450 87287 mom yes rot yes

# TODO: add thermostat and barostat (NPT)
# fix npt all npt temp 450 450 0.1 iso 1.0 1.0 1.0

run 1000

write_restart npt.restart
