units metal
atom_style atomic

read_restart em.restart

pair_style metatomic &
    model.pt &
    uncertainty_threshold off

pair_coeff * * 1 8

neighbor 2.0 bin

# Timestep (ps)
timestep 0.0005

# Temperature (K)
variable temp equal 450.0

# Pressure (bar)
variable press equal 1.0

thermo 50

velocity all create ${temp} 87287 mom yes rot yes

# NpT with Berendsen barostat and CSVR Thermostate
fix 1 all nve
fix 2 all press/berendsen iso 0.0 0.0 ${press}
fix 3 all temp/csvr ${temp} ${temp} 100.0 54324

run 1000

write_restart npt.restart
