units metal
atom_style atomic

# Continue from minimized structure
read_restart em.restart

pair_style metatomic &
    model.pt &
    uncertainty_threshold off

pair_coeff * * 1 8

neighbor 2.0 bin

# Timestep (ps)
timestep 0.0005

# Target temperature (K)
variable temp equal 450.0

# Target pressure (bar)
variable press equal 1.0

thermo 50

# Initialize velocities from Maxwell-Boltzmann distribution at target temp
# 87287 = random seed
# mom yes / rot yes = remove center-of-mass motion and rotation
velocity all create ${temp} 87287 mom yes rot yes

# TODO: choose a fix to set up an npt simulation at given ${temp} and ${press}

# Run 1000 timesteps (0.5 ps total)
run 1000

# Save restart file for production run
write_restart npt.restart
